AME : levi30_25
COMMENT : 30: 40x18 -city problem (levikoppenhol)
TYPE : TSP
DIMENSION : 30
EDGE_WEIGHT_TYPE : EUC_2D
NODE_COORD_SECTION
1 14 12
2 7 7
3 8 20
4 10 23
5 3 20
6 15 6
7 18 36
8 11 20
9 11 10
10 4 3
11 15 12
12 1 4
13 14 3
14 14 10
15 10 38
16 2 20
17 0 23
18 6 10
19 13 27
20 8 31
21 15 34
22 16 7
23 13 38
24 7 17
25 14 0
26 15 12
27 13 12
28 1 40
29 15 39
30 10 32
EOF